networks/zoo_54_141/zoo_54_141.txt
OKAY
Number of groups: 31
Flow 1: {1 14 0} {14 21 1} {21 49 2} 
Flow 2: {2 14 0} 
Flow 3: {3 21 0} 
Flow 4: {4 23 0} {23 10 1} {10 11 2} 
Flow 5: {5 15 0} 
Flow 6: {7 14 0} 
Flow 7: {8 21 0} 
Flow 8: {9 12 0} {12 25 1} {25 21 2} 
Flow 29: {25 15 0} {15 43 1} 
Flow 30: {15 16 0} 
Flow 33: {13 25 0} 
Flow 34: {10 23 0} {23 4 1} {4 32 2} 
Flow 35: {15 5 0} {5 33 1} 
Flow 36: {14 7 0} {7 35 1} 
Flow 37: {25 12 0} {12 9 1} {9 37 2} 
Flow 40: {12 40 0} 
Flow 44: {17 45 0} 
Flow 48: {23 22 0} {22 50 1} 
Flow 66: {11 39 0} 
Flow 73: {16 15 0} {15 25 1} {25 53 2} 
Flow 74: {16 17 0} {17 14 1} {14 26 2} {26 54 3} 
Flow 78: {18 20 0} {20 21 1} 
Flow 80: {19 16 0} {16 21 1} {21 24 2} {24 52 3} 
Flow 87: {21 25 0} {25 13 1} {13 41 2} 
Flow 91: {21 16 0} {16 19 1} {19 47 2} 
Flow 114: {11 15 0} {15 21 1} {21 20 2} {20 48 3} 
Flow 116: {22 23 0} {23 51 1} 
Flow 128: {24 21 0} {21 15 1} {15 11 2} {11 10 3} {10 38 4} 
Flow 130: {21 14 0} {14 42 1} 
Flow 138: {26 14 0} {14 17 1} {17 16 2} {16 44 3} 
Flow 141: {27 21 0} 
Time taken running everything: 1 seconds
