networks/zoo_54_141/zoo_54_141.sol
<?xml version = "1.0" encoding="UTF-8" standalone="yes"?>
<CPLEXSolution version="1.2">
 <header
   problemName="networks/zoo_54_141/zoo_54_141.lp"
   solutionName="incumbent"
   solutionIndex="-1"
   objectiveValue="31"
   solutionTypeValue="3"
   solutionTypeString="primal"
   solutionStatusValue="101"
   solutionStatusString="integer optimal solution"
   solutionMethodString="mip"
   primalFeasible="1"
   dualFeasible="1"
   MIPNodes="0"
   MIPIterations="993"
   writeLevel="3"/>
 <quality
   epInt="1.0000000000000001e-05"
   epRHS="9.9999999999999995e-07"
   maxIntInfeas="0"
   maxPrimalInfeas="8.8817841970012523e-16"
   maxX="4"
   maxSlack="10"/>
 <variables>
  <variable name="Y(1,21)" index="19" value="1"/>
  <variable name="Y(2,2)" index="47" value="1"/>
  <variable name="Y(3,3)" index="94" value="1"/>
  <variable name="Y(4,10)" index="146" value="1"/>
  <variable name="Y(5,5)" index="188" value="1"/>
  <variable name="Y(6,7)" index="235" value="1"/>
  <variable name="Y(7,8)" index="282" value="1"/>
  <variable name="Y(8,25)" index="345" value="1"/>
  <variable name="Y(29,15)" index="1301" value="1"/>
  <variable name="Y(30,15)" index="1347" value="1"/>
  <variable name="Y(33,13)" index="1483" value="1"/>
  <variable name="Y(34,4)" index="1521" value="1"/>
  <variable name="Y(35,5)" index="1568" value="1"/>
  <variable name="Y(36,7)" index="1615" value="1"/>
  <variable name="Y(37,9)" index="1663" value="1"/>
  <variable name="Y(40,12)" index="1804" value="1"/>
  <variable name="Y(44,17)" index="1993" value="1"/>
  <variable name="Y(48,22)" index="2182" value="1"/>
  <variable name="Y(66,11)" index="2999" value="1"/>
  <variable name="Y(73,25)" index="3335" value="1"/>
  <variable name="Y(74,26)" index="3382" value="1"/>
  <variable name="Y(78,20)" index="3560" value="1"/>
  <variable name="Y(80,24)" index="3656" value="1"/>
  <variable name="Y(87,13)" index="3967" value="1"/>
  <variable name="Y(91,19)" index="4157" value="1"/>
  <variable name="Y(114,20)" index="5216" value="1"/>
  <variable name="Y(116,23)" index="5311" value="1"/>
  <variable name="Y(128,10)" index="5850" value="1"/>
  <variable name="Y(130,14)" index="5946" value="1"/>
  <variable name="Y(138,16)" index="6316" value="1"/>
  <variable name="Y(141,27)" index="6465" value="1"/>
  <variable name="X(1,14,1)" index="6486" value="1"/>
  <variable name="X(2,14,2)" index="6628" value="1"/>
  <variable name="X(3,21,3)" index="6770" value="1"/>
  <variable name="X(4,23,4)" index="6912" value="1"/>
  <variable name="X(4,32,34)" index="7083" value="1"/>
  <variable name="X(5,15,5)" index="7195" value="1"/>
  <variable name="X(5,33,35)" index="7366" value="1"/>
  <variable name="X(7,14,6)" index="7478" value="1"/>
  <variable name="X(7,35,36)" index="7649" value="1"/>
  <variable name="X(8,21,7)" index="7761" value="1"/>
  <variable name="X(9,12,8)" index="7903" value="1"/>
  <variable name="X(9,37,37)" index="8073" value="1"/>
  <variable name="X(10,11,4)" index="8181" value="1"/>
  <variable name="X(10,23,34)" index="8352" value="1"/>
  <variable name="X(10,38,128)" index="8587" value="1"/>
  <variable name="X(11,10,128)" index="8728" value="1"/>
  <variable name="X(11,15,114)" index="8855" value="1"/>
  <variable name="X(11,39,66)" index="8948" value="1"/>
  <variable name="X(12,9,37)" index="9060" value="1"/>
  <variable name="X(12,25,8)" index="9172" value="1"/>
  <variable name="X(12,40,40)" index="9345" value="1"/>
  <variable name="X(13,25,33)" index="9479" value="1"/>
  <variable name="X(13,41,87)" index="9674" value="1"/>
  <variable name="X(14,7,36)" index="9764" value="1"/>
  <variable name="X(14,17,138)" index="10007" value="1"/>
  <variable name="X(14,21,1)" index="10011" value="1"/>
  <variable name="X(14,26,74)" index="10225" value="1"/>
  <variable name="X(14,42,130)" index="10422" value="1"/>
  <variable name="X(15,5,35)" index="10468" value="1"/>
  <variable name="X(15,11,128)" index="10702" value="1"/>
  <variable name="X(15,16,30)" index="10745" value="1"/>
  <variable name="X(15,21,114)" index="10970" value="1"/>
  <variable name="X(15,25,73)" index="11070" value="1"/>
  <variable name="X(15,43,29)" index="11167" value="1"/>
  <variable name="X(16,15,73)" index="11352" value="1"/>
  <variable name="X(16,17,74)" index="11494" value="1"/>
  <variable name="X(16,19,91)" index="11652" value="1"/>
  <variable name="X(16,21,80)" index="11782" value="1"/>
  <variable name="X(16,44,138)" index="11981" value="1"/>
  <variable name="X(17,14,74)" index="12058" value="1"/>
  <variable name="X(17,16,138)" index="12263" value="1"/>
  <variable name="X(17,45,44)" index="12310" value="1"/>
  <variable name="X(18,20,78)" index="12485" value="1"/>
  <variable name="X(19,16,80)" index="12628" value="1"/>
  <variable name="X(19,47,91)" index="12780" value="1"/>
  <variable name="X(20,21,78)" index="12908" value="1"/>
  <variable name="X(20,48,114)" index="13085" value="1"/>
  <variable name="X(21,14,130)" index="13242" value="1"/>
  <variable name="X(21,15,128)" index="13381" value="1"/>
  <variable name="X(21,16,91)" index="13485" value="1"/>
  <variable name="X(21,20,114)" index="13649" value="1"/>
  <variable name="X(21,24,80)" index="13756" value="1"/>
  <variable name="X(21,25,87)" index="13904" value="1"/>
  <variable name="X(21,49,1)" index="13959" value="1"/>
  <variable name="X(22,23,116)" index="14215" value="1"/>
  <variable name="X(22,50,48)" index="14288" value="1"/>
  <variable name="X(23,4,34)" index="14415" value="1"/>
  <variable name="X(23,10,4)" index="14526" value="1"/>
  <variable name="X(23,22,48)" index="14711" value="1"/>
  <variable name="X(23,51,116)" index="14920" value="1"/>
  <variable name="X(24,21,128)" index="15073" value="1"/>
  <variable name="X(24,52,80)" index="15166" value="1"/>
  <variable name="X(25,12,37)" index="15264" value="1"/>
  <variable name="X(25,13,87)" index="15455" value="1"/>
  <variable name="X(25,15,29)" index="15538" value="1"/>
  <variable name="X(25,21,8)" index="15658" value="1"/>
  <variable name="X(25,53,73)" index="15864" value="1"/>
  <variable name="X(26,14,138)" index="16070" value="1"/>
  <variable name="X(26,54,74)" index="16147" value="1"/>
  <variable name="X(27,21,141)" index="16355" value="1"/>
  <variable name="C(1,14)" index="16357" value="1"/>
  <variable name="C(1,21)" index="16358" value="2"/>
  <variable name="C(4,23)" index="16365" value="1"/>
  <variable name="C(4,10)" index="16366" value="2"/>
  <variable name="C(8,12)" index="16379" value="1"/>
  <variable name="C(8,25)" index="16380" value="2"/>
  <variable name="C(29,15)" index="16456" value="1"/>
  <variable name="C(34,23)" index="16476" value="1.0000000000000004"/>
  <variable name="C(34,4)" index="16477" value="2.0000000000000004"/>
  <variable name="C(35,5)" index="16481" value="1"/>
  <variable name="C(36,7)" index="16483" value="1"/>
  <variable name="C(37,12)" index="16487" value="1"/>
  <variable name="C(37,9)" index="16488" value="2"/>
  <variable name="C(48,22)" index="16529" value="1"/>
  <variable name="C(73,15)" index="16606" value="1"/>
  <variable name="C(73,25)" index="16607" value="1.9999999999999991"/>
  <variable name="C(74,17)" index="16609" value="1"/>
  <variable name="C(74,14)" index="16610" value="2"/>
  <variable name="C(74,26)" index="16611" value="3"/>
  <variable name="C(78,20)" index="16623" value="1"/>
  <variable name="C(80,16)" index="16630" value="1"/>
  <variable name="C(80,21)" index="16631" value="2"/>
  <variable name="C(80,24)" index="16632" value="3"/>
  <variable name="C(87,25)" index="16663" value="1"/>
  <variable name="C(87,13)" index="16664" value="2"/>
  <variable name="C(91,16)" index="16676" value="1"/>
  <variable name="C(91,19)" index="16677" value="2"/>
  <variable name="C(114,15)" index="16762" value="1"/>
  <variable name="C(114,21)" index="16763" value="2"/>
  <variable name="C(114,20)" index="16764" value="3"/>
  <variable name="C(116,23)" index="16772" value="1"/>
  <variable name="C(128,21)" index="16830" value="1"/>
  <variable name="C(128,15)" index="16831" value="2"/>
  <variable name="C(128,11)" index="16832" value="3"/>
  <variable name="C(128,10)" index="16833" value="4"/>
  <variable name="C(130,14)" index="16840" value="1"/>
  <variable name="C(138,14)" index="16865" value="1"/>
  <variable name="C(138,17)" index="16866" value="2"/>
  <variable name="C(138,16)" index="16867" value="3"/>
 </variables>
</CPLEXSolution>
